n = 9;
s = 1;
t = n;

num_edges = 14;
E = array2d(1..num_edges, 1..2,
[
       1, 2, 
       1, 4,
       2, 3,
       2, 4,
       3, 5,
       3, 8,
       4, 5,
       5, 2,
       5, 6,
       5, 7,
       6, 7,
       6, 8,
       7, 9,
       8, 9]);

a = [14,23,10, 9,12,18,26,11,25, 4, 7, 8,15,20];
